\ This file has been generated by DOcplex
\ ENCODING=ISO-8859-1
\Problem name: AMC-3ADMM-H

Minimize
 obj: x_0 + x_1 + y_0 + y_1 - 20 u_0 + 20
Subject To
 cons1: x_0 + 2 x_1 + y_0 + u_0 <= 4
 cons2: x_0 + x_1 + y_0 >= 1
 cons3: x_0 + x_1 = 1
 cons4: y_0 + y_1 = 1

Bounds
 0 <= x_0 <= 1
 0 <= x_1 <= 1
 0 <= y_0 <= 1
 0 <= y_1 <= 1

Binaries
 x_0 x_1 y_0 y_1
End
